NAME          
ROWS
 N  OBJ
 L  c1
COLUMNS
    MARKER    'MARKER'                 'INTORG'
    x[1]      c1        283
    x[1]      OBJ       -183
    x[2]      c1        873
    x[2]      OBJ       -845
    x[3]      c1        227
    x[3]      OBJ       -241
    x[4]      c1        124
    x[4]      OBJ       -46
    x[5]      c1        297
    x[5]      OBJ       -246
    x[6]      c1        740
    x[6]      OBJ       -677
    x[7]      c1        959
    x[7]      OBJ       -895
    x[8]      c1        34
    x[8]      OBJ       -21
    x[9]      c1        35
    x[9]      OBJ       -4
    x[10]     c1        241
    x[10]     OBJ       -214
    x[11]     c1        401
    x[11]     OBJ       -434
    x[12]     c1        441
    x[12]     OBJ       -363
    x[13]     c1        301
    x[13]     OBJ       -214
    x[14]     c1        497
    x[14]     OBJ       -457
    x[15]     c1        107
    x[15]     OBJ       -121
    x[16]     c1        790
    x[16]     OBJ       -721
    x[17]     c1        868
    x[17]     OBJ       -908
    x[18]     c1        -38
    x[18]     OBJ       -51
    x[19]     c1        642
    x[19]     OBJ       -624
    x[20]     c1        593
    x[20]     OBJ       -601
    x[21]     c1        651
    x[21]     OBJ       -663
    x[22]     c1        599
    x[22]     OBJ       -579
    x[23]     c1        426
    x[23]     OBJ       -480
    x[24]     c1        751
    x[24]     OBJ       -801
    x[25]     c1        634
    x[25]     OBJ       -632
    x[26]     c1        695
    x[26]     OBJ       -616
    x[27]     c1        870
    x[27]     OBJ       -926
    x[28]     c1        988
    x[28]     OBJ       -924
    x[29]     c1        517
    x[29]     OBJ       -538
    x[30]     c1        604
    x[30]     OBJ       -523
    x[31]     c1        542
    x[31]     OBJ       -630
    x[32]     c1        569
    x[32]     OBJ       -500
    x[33]     c1        1048
    x[33]     OBJ       -980
    x[34]     c1        618
    x[34]     OBJ       -534
    x[35]     c1        344
    x[35]     OBJ       -313
    x[36]     c1        70
    x[36]     OBJ       -48
    x[37]     c1        1029
    x[37]     OBJ       -971
    x[38]     c1        28
    x[38]     OBJ       -68
    x[39]     c1        780
    x[39]     OBJ       -697
    x[40]     c1        401
    x[40]     OBJ       -318
RHS
    rhs       c1        10290
RANGES
BOUNDS
 BV bounds    x[1]
 BV bounds    x[2]
 BV bounds    x[3]
 BV bounds    x[4]
 BV bounds    x[5]
 BV bounds    x[6]
 BV bounds    x[7]
 BV bounds    x[8]
 BV bounds    x[9]
 BV bounds    x[10]
 BV bounds    x[11]
 BV bounds    x[12]
 BV bounds    x[13]
 BV bounds    x[14]
 BV bounds    x[15]
 BV bounds    x[16]
 BV bounds    x[17]
 BV bounds    x[18]
 BV bounds    x[19]
 BV bounds    x[20]
 BV bounds    x[21]
 BV bounds    x[22]
 BV bounds    x[23]
 BV bounds    x[24]
 BV bounds    x[25]
 BV bounds    x[26]
 BV bounds    x[27]
 BV bounds    x[28]
 BV bounds    x[29]
 BV bounds    x[30]
 BV bounds    x[31]
 BV bounds    x[32]
 BV bounds    x[33]
 BV bounds    x[34]
 BV bounds    x[35]
 BV bounds    x[36]
 BV bounds    x[37]
 BV bounds    x[38]
 BV bounds    x[39]
 BV bounds    x[40]
ENDATA
